;; sequence(s): A3594
;; terms: 1 3 7 9 21 27 49 63 81 147 189 243 343 441 567 729 1029 1323 1701 2187
;; small program: loop(compr(loop(x * x, 1 + 2, loop(loop(1 + (x + x), 2, x), 2, 1 + 2)) mod (1 + x), y), x, 0) + 1
;; fast program: loop2(compr(loop((x * x) * x, 1, loop(x * x, 2, 1 + (2 * (2 + (2 * (2 + 2)))))) mod (1 + x), y) + x, y, 2, 2, x) div 2
(set-logic UFNIA)
(define-fun divf ((a Int) (b Int)) Int (ite (< 0 b) (div a b) (div (- a) (- b))))
(define-fun modf ((a Int) (b Int)) Int (ite (< 0 b) (mod a b) (- (mod (- a) (- b)))))
(declare-fun f2 (Int) Int)
(declare-fun g2 () Int)
(declare-fun f4 (Int) Int)
(declare-fun g4 () Int)
(declare-fun h4 (Int) Int)
(declare-fun u4 (Int Int) Int)
(declare-fun v4 (Int) Int)
(declare-fun f3 (Int) Int)
(declare-fun g3 () Int)
(declare-fun h3 () Int)
(declare-fun u3 (Int Int) Int)
(declare-fun v3 () Int)
(declare-fun h2 () Int)
(declare-fun u2 (Int Int) Int)
(declare-fun v2 () Int)
(declare-fun f1 (Int) Int)
(declare-fun g1 (Int Int) Int)
(declare-fun t1 (Int) Int)
(declare-fun u1 (Int) Int)
(declare-fun v1 (Int Int) Int)
(declare-fun f0 (Int Int) Int)
(declare-fun g0 (Int) Int)
(declare-fun h0 () Int)
(declare-fun u0 (Int Int) Int)
(declare-fun v0 (Int) Int)
(declare-fun small (Int) Int)
(declare-fun f7 (Int) Int)
(declare-fun g7 () Int)
(declare-fun f8 (Int) Int)
(declare-fun g8 () Int)
(declare-fun h8 () Int)
(declare-fun u8 (Int Int) Int)
(declare-fun v8 () Int)
(declare-fun h7 () Int)
(declare-fun u7 (Int Int) Int)
(declare-fun v7 () Int)
(declare-fun f6 (Int) Int)
(declare-fun g6 (Int Int) Int)
(declare-fun t6 (Int) Int)
(declare-fun u6 (Int) Int)
(declare-fun v6 (Int Int) Int)
(declare-fun f5 (Int Int) Int)
(declare-fun g5 (Int Int) Int)
(declare-fun h5 () Int)
(declare-fun i5 () Int)
(declare-fun j5 (Int) Int)
(declare-fun u5 (Int Int Int) Int)
(declare-fun v5 (Int Int Int) Int)
(declare-fun w5 (Int) Int)
(declare-fun fast (Int) Int)
(assert (forall ((x Int)) (= (f2 x) (* x x))))
(assert (= g2 (+ 1 2)))
(assert (forall ((x Int)) (= (f4 x) (+ 1 (+ x x)))))
(assert (= g4 2))
(assert (forall ((x Int)) (= (h4 x) x)))
(assert (forall ((x Int) (y Int)) (= (u4 x y) (ite (<= x 0) y (f4 (u4 (- x 1) y))))))
(assert (forall ((x Int)) (= (v4 x) (u4 g4 (h4 x)))))
(assert (forall ((x Int)) (= (f3 x) (v4 x))))
(assert (= g3 2))
(assert (= h3 (+ 1 2)))
(assert (forall ((x Int) (y Int)) (= (u3 x y) (ite (<= x 0) y (f3 (u3 (- x 1) y))))))
(assert (= v3 (u3 g3 h3)))
(assert (= h2 v3))
(assert (forall ((x Int) (y Int)) (= (u2 x y) (ite (<= x 0) y (f2 (u2 (- x 1) y))))))
(assert (= v2 (u2 g2 h2)))
(assert (forall ((x Int)) (= (f1 x) (modf v2 (+ 1 x)))))
(assert (forall ((x Int) (y Int)) (= (g1 x y) y)))
(assert (forall ((x Int)) (= (t1 x) (ite (<= (f1 x) 0) x (t1 (+ x 1))))))
(assert (forall ((x Int)) (= (u1 x) (ite (<= x 0) (t1 0) (t1 (+ (u1 (- x 1)) 1))))))
(assert (forall ((x Int) (y Int)) (= (v1 x y) (u1 (g1 x y)))))
(assert (forall ((x Int) (y Int)) (= (f0 x y) (v1 x y))))
(assert (forall ((x Int)) (= (g0 x) x)))
(assert (= h0 0))
(assert (forall ((x Int) (y Int)) (= (u0 x y) (ite (<= x 0) y (f0 (u0 (- x 1) y) x)))))
(assert (forall ((x Int)) (= (v0 x) (u0 (g0 x) h0))))
(assert (forall ((x Int)) (= (small x) (+ (v0 x) 1))))
(assert (forall ((x Int)) (= (f7 x) (* (* x x) x))))
(assert (= g7 1))
(assert (forall ((x Int)) (= (f8 x) (* x x))))
(assert (= g8 2))
(assert (= h8 (+ 1 (* 2 (+ 2 (* 2 (+ 2 2)))))))
(assert (forall ((x Int) (y Int)) (= (u8 x y) (ite (<= x 0) y (f8 (u8 (- x 1) y))))))
(assert (= v8 (u8 g8 h8)))
(assert (= h7 v8))
(assert (forall ((x Int) (y Int)) (= (u7 x y) (ite (<= x 0) y (f7 (u7 (- x 1) y))))))
(assert (= v7 (u7 g7 h7)))
(assert (forall ((x Int)) (= (f6 x) (modf v7 (+ 1 x)))))
(assert (forall ((x Int) (y Int)) (= (g6 x y) y)))
(assert (forall ((x Int)) (= (t6 x) (ite (<= (f6 x) 0) x (t6 (+ x 1))))))
(assert (forall ((x Int)) (= (u6 x) (ite (<= x 0) (t6 0) (t6 (+ (u6 (- x 1)) 1))))))
(assert (forall ((x Int) (y Int)) (= (v6 x y) (u6 (g6 x y)))))
(assert (forall ((x Int) (y Int)) (= (f5 x y) (+ (v6 x y) x))))
(assert (forall ((x Int) (y Int)) (= (g5 x y) y)))
(assert (= h5 2))
(assert (= i5 2))
(assert (forall ((x Int)) (= (j5 x) x)))
(assert (forall ((x Int) (y Int) (z Int)) (= (u5 x y z) (ite (<= x 0) y (f5 (u5 (- x 1) y z) (v5 (- x 1) y z))))))
(assert (forall ((x Int) (y Int) (z Int)) (= (v5 x y z) (ite (<= x 0) z (g5 (u5 (- x 1) y z) (v5 (- x 1) y z))))))
(assert (forall ((x Int)) (= (w5 x) (u5 h5 i5 (j5 x)))))
(assert (forall ((x Int)) (= (fast x) (divf (w5 x) 2))))
(assert (exists ((c Int)) (and (>= c 0) (not (= (small c) (fast c))))))
(check-sat)
